p cnf 189 733
1 2 3 4 5 6 7 8 9 10 11 12 13 14 15 16 17 18 19 20 0
21 22 23 24 25 26 27 28 29 30 31 32 33 34 35 36 0
57 58 59 60 61 62 63 64 65 66 67 68 69 70 71 72 73 74 75 0
76 77 78 79 80 81 82 83 84 85 86 87 88 89 90 91 92 93 94 95 96 0
97 98 99 100 101 102 103 104 105 106 107 108 109 110 111 112 113 114 115 116 0
117 118 119 120 121 122 123 124 125 126 127 128 129 130 131 132 133 134 135 0
136 137 138 139 140 141 142 143 144 145 146 147 148 149 150 151 152 153 0
-1 -21 0
-1 -37 0
-1 -57 0
-1 -76 0
-1 -97 0
-1 -136 0
-1 -171 0
-21 -37 0
-21 -57 0
-21 -76 0
-21 -97 0
-21 -136 0
-21 -171 0
-37 -57 0
-37 -76 0
-37 -97 0
-37 -136 0
-37 -171 0
-57 -76 0
-57 -97 0
-57 -136 0
-57 -171 0
-76 -97 0
-76 -136 0
-76 -171 0
-97 -136 0
-97 -171 0
-136 -171 0
-22 -38 0
-22 -58 0
-22 -77 0
-22 -98 0
-22 -117 0
-22 -137 0
-22 -154 0
-38 -58 0
-38 -77 0
-38 -98 0
-38 -117 0
-38 -137 0
-38 -154 0
-58 -77 0
-58 -98 0
-58 -117 0
-58 -137 0
-58 -154 0
-77 -98 0
-77 -117 0
-77 -137 0
-77 -154 0
-98 -117 0
-98 -137 0
-98 -154 0
-117 -137 0
-117 -154 0
-137 -154 0
-2 -23 0
-2 -39 0
-2 -59 0
-2 -78 0
-2 -99 0
-2 -118 0
-2 -155 0
-2 -172 0
-23 -39 0
-23 -59 0
-23 -78 0
-23 -99 0
-23 -118 0
-23 -155 0
-23 -172 0
-39 -59 0
-39 -78 0
-39 -99 0
-39 -118 0
-39 -155 0
-39 -172 0
-59 -78 0
-59 -99 0
-59 -118 0
-59 -155 0
-59 -172 0
-78 -99 0
-78 -118 0
-78 -155 0
-78 -172 0
-99 -118 0
-99 -155 0
-99 -172 0
-118 -155 0
-118 -172 0
-155 -172 0
-3 -24 0
-3 -40 0
-3 -60 0
-3 -79 0
-3 -119 0
-3 -138 0
-3 -156 0
-3 -173 0
-24 -40 0
-24 -60 0
-24 -79 0
-24 -119 0
-24 -138 0
-24 -156 0
-24 -173 0
-40 -60 0
-40 -79 0
-40 -119 0
-40 -138 0
-40 -156 0
-40 -173 0
-60 -79 0
-60 -119 0
-60 -138 0
-60 -156 0
-60 -173 0
-79 -119 0
-79 -138 0
-79 -156 0
-79 -173 0
-119 -138 0
-119 -156 0
-119 -173 0
-138 -156 0
-138 -173 0
-156 -173 0
-4 -25 0
-4 -41 0
-4 -61 0
-4 -80 0
-4 -100 0
-4 -120 0
-4 -139 0
-4 -157 0
-4 -174 0
-25 -41 0
-25 -61 0
-25 -80 0
-25 -100 0
-25 -120 0
-25 -139 0
-25 -157 0
-25 -174 0
-41 -61 0
-41 -80 0
-41 -100 0
-41 -120 0
-41 -139 0
-41 -157 0
-41 -174 0
-61 -80 0
-61 -100 0
-61 -120 0
-61 -139 0
-61 -157 0
-61 -174 0
-80 -100 0
-80 -120 0
-80 -139 0
-80 -157 0
-80 -174 0
-100 -120 0
-100 -139 0
-100 -157 0
-100 -174 0
-120 -139 0
-120 -157 0
-120 -174 0
-139 -157 0
-139 -174 0
-157 -174 0
-5 -42 0
-5 -62 0
-5 -81 0
-5 -101 0
-5 -121 0
-5 -140 0
-5 -158 0
-5 -175 0
-42 -62 0
-42 -81 0
-42 -101 0
-42 -121 0
-42 -140 0
-42 -158 0
-42 -175 0
-62 -81 0
-62 -101 0
-62 -121 0
-62 -140 0
-62 -158 0
-62 -175 0
-81 -101 0
-81 -121 0
-81 -140 0
-81 -158 0
-81 -175 0
-101 -121 0
-101 -140 0
-101 -158 0
-101 -175 0
-121 -140 0
-121 -158 0
-121 -175 0
-140 -158 0
-140 -175 0
-158 -175 0
-6 -63 0
-6 -82 0
-6 -102 0
-6 -122 0
-6 -141 0
-6 -159 0
-6 -176 0
-63 -82 0
-63 -102 0
-63 -122 0
-63 -141 0
-63 -159 0
-63 -176 0
-82 -102 0
-82 -122 0
-82 -141 0
-82 -159 0
-82 -176 0
-102 -122 0
-102 -141 0
-102 -159 0
-102 -176 0
-122 -141 0
-122 -159 0
-122 -176 0
-141 -159 0
-141 -176 0
-159 -176 0
-7 -26 0
-7 -83 0
-7 -123 0
-7 -142 0
-7 -160 0
-7 -177 0
-26 -83 0
-26 -123 0
-26 -142 0
-26 -160 0
-26 -177 0
-83 -123 0
-83 -142 0
-83 -160 0
-83 -177 0
-123 -142 0
-123 -160 0
-123 -177 0
-142 -160 0
-142 -177 0
-160 -177 0
-8 -43 0
-8 -64 0
-8 -84 0
-8 -103 0
-8 -124 0
-8 -143 0
-8 -161 0
-43 -64 0
-43 -84 0
-43 -103 0
-43 -124 0
-43 -143 0
-43 -161 0
-64 -84 0
-64 -103 0
-64 -124 0
-64 -143 0
-64 -161 0
-84 -103 0
-84 -124 0
-84 -143 0
-84 -161 0
-103 -124 0
-103 -143 0
-103 -161 0
-124 -143 0
-124 -161 0
-143 -161 0
-9 -27 0
-9 -44 0
-9 -65 0
-9 -85 0
-9 -104 0
-9 -125 0
-9 -162 0
-9 -178 0
-27 -44 0
-27 -65 0
-27 -85 0
-27 -104 0
-27 -125 0
-27 -162 0
-27 -178 0
-44 -65 0
-44 -85 0
-44 -104 0
-44 -125 0
-44 -162 0
-44 -178 0
-65 -85 0
-65 -104 0
-65 -125 0
-65 -162 0
-65 -178 0
-85 -104 0
-85 -125 0
-85 -162 0
-85 -178 0
-104 -125 0
-104 -162 0
-104 -178 0
-125 -162 0
-125 -178 0
-162 -178 0
-10 -28 0
-10 -45 0
-10 -66 0
-10 -86 0
-10 -105 0
-10 -126 0
-10 -144 0
-10 -179 0
-28 -45 0
-28 -66 0
-28 -86 0
-28 -105 0
-28 -126 0
-28 -144 0
-28 -179 0
-45 -66 0
-45 -86 0
-45 -105 0
-45 -126 0
-45 -144 0
-45 -179 0
-66 -86 0
-66 -105 0
-66 -126 0
-66 -144 0
-66 -179 0
-86 -105 0
-86 -126 0
-86 -144 0
-86 -179 0
-105 -126 0
-105 -144 0
-105 -179 0
-126 -144 0
-126 -179 0
-144 -179 0
-11 -29 0
-11 -46 0
-11 -67 0
-11 -87 0
-11 -106 0
-11 -127 0
-11 -163 0
-11 -180 0
-29 -46 0
-29 -67 0
-29 -87 0
-29 -106 0
-29 -127 0
-29 -163 0
-29 -180 0
-46 -67 0
-46 -87 0
-46 -106 0
-46 -127 0
-46 -163 0
-46 -180 0
-67 -87 0
-67 -106 0
-67 -127 0
-67 -163 0
-67 -180 0
-87 -106 0
-87 -127 0
-87 -163 0
-87 -180 0
-106 -127 0
-106 -163 0
-106 -180 0
-127 -163 0
-127 -180 0
-163 -180 0
-12 -30 0
-12 -47 0
-12 -68 0
-12 -88 0
-12 -107 0
-12 -128 0
-12 -145 0
-12 -181 0
-30 -47 0
-30 -68 0
-30 -88 0
-30 -107 0
-30 -128 0
-30 -145 0
-30 -181 0
-47 -68 0
-47 -88 0
-47 -107 0
-47 -128 0
-47 -145 0
-47 -181 0
-68 -88 0
-68 -107 0
-68 -128 0
-68 -145 0
-68 -181 0
-88 -107 0
-88 -128 0
-88 -145 0
-88 -181 0
-107 -128 0
-107 -145 0
-107 -181 0
-128 -145 0
-128 -181 0
-145 -181 0
-13 -31 0
-13 -48 0
-13 -89 0
-13 -108 0
-13 -129 0
-13 -146 0
-13 -164 0
-13 -182 0
-31 -48 0
-31 -89 0
-31 -108 0
-31 -129 0
-31 -146 0
-31 -164 0
-31 -182 0
-48 -89 0
-48 -108 0
-48 -129 0
-48 -146 0
-48 -164 0
-48 -182 0
-89 -108 0
-89 -129 0
-89 -146 0
-89 -164 0
-89 -182 0
-108 -129 0
-108 -146 0
-108 -164 0
-108 -182 0
-129 -146 0
-129 -164 0
-129 -182 0
-146 -164 0
-146 -182 0
-164 -182 0
-14 -32 0
-14 -49 0
-14 -69 0
-14 -90 0
-14 -109 0
-14 -130 0
-14 -147 0
-14 -165 0
-14 -183 0
-32 -49 0
-32 -69 0
-32 -90 0
-32 -109 0
-32 -130 0
-32 -147 0
-32 -165 0
-32 -183 0
-49 -69 0
-49 -90 0
-49 -109 0
-49 -130 0
-49 -147 0
-49 -165 0
-49 -183 0
-69 -90 0
-69 -109 0
-69 -130 0
-69 -147 0
-69 -165 0
-69 -183 0
-90 -109 0
-90 -130 0
-90 -147 0
-90 -165 0
-90 -183 0
-109 -130 0
-109 -147 0
-109 -165 0
-109 -183 0
-130 -147 0
-130 -165 0
-130 -183 0
-147 -165 0
-147 -183 0
-165 -183 0
-15 -50 0
-15 -70 0
-15 -91 0
-15 -110 0
-15 -131 0
-15 -148 0
-15 -166 0
-15 -184 0
-50 -70 0
-50 -91 0
-50 -110 0
-50 -131 0
-50 -148 0
-50 -166 0
-50 -184 0
-70 -91 0
-70 -110 0
-70 -131 0
-70 -148 0
-70 -166 0
-70 -184 0
-91 -110 0
-91 -131 0
-91 -148 0
-91 -166 0
-91 -184 0
-110 -131 0
-110 -148 0
-110 -166 0
-110 -184 0
-131 -148 0
-131 -166 0
-131 -184 0
-148 -166 0
-148 -184 0
-166 -184 0
-16 -51 0
-16 -71 0
-16 -92 0
-16 -111 0
-16 -132 0
-16 -149 0
-16 -167 0
-16 -185 0
-51 -71 0
-51 -92 0
-51 -111 0
-51 -132 0
-51 -149 0
-51 -167 0
-51 -185 0
-71 -92 0
-71 -111 0
-71 -132 0
-71 -149 0
-71 -167 0
-71 -185 0
-92 -111 0
-92 -132 0
-92 -149 0
-92 -167 0
-92 -185 0
-111 -132 0
-111 -149 0
-111 -167 0
-111 -185 0
-132 -149 0
-132 -167 0
-132 -185 0
-149 -167 0
-149 -185 0
-167 -185 0
-17 -33 0
-17 -52 0
-17 -72 0
-17 -112 0
-17 -150 0
-17 -168 0
-17 -186 0
-33 -52 0
-33 -72 0
-33 -112 0
-33 -150 0
-33 -168 0
-33 -186 0
-52 -72 0
-52 -112 0
-52 -150 0
-52 -168 0
-52 -186 0
-72 -112 0
-72 -150 0
-72 -168 0
-72 -186 0
-112 -150 0
-112 -168 0
-112 -186 0
-150 -168 0
-150 -186 0
-168 -186 0
-34 -53 0
-34 -73 0
-34 -93 0
-34 -113 0
-34 -151 0
-34 -187 0
-53 -73 0
-53 -93 0
-53 -113 0
-53 -151 0
-53 -187 0
-73 -93 0
-73 -113 0
-73 -151 0
-73 -187 0
-93 -113 0
-93 -151 0
-93 -187 0
-113 -151 0
-113 -187 0
-151 -187 0
-18 -54 0
-18 -74 0
-18 -94 0
-18 -114 0
-18 -133 0
-18 -152 0
-18 -188 0
-54 -74 0
-54 -94 0
-54 -114 0
-54 -133 0
-54 -152 0
-54 -188 0
-74 -94 0
-74 -114 0
-74 -133 0
-74 -152 0
-74 -188 0
-94 -114 0
-94 -133 0
-94 -152 0
-94 -188 0
-114 -133 0
-114 -152 0
-114 -188 0
-133 -152 0
-133 -188 0
-152 -188 0
-19 -35 0
-19 -55 0
-19 -95 0
-19 -115 0
-19 -134 0
-19 -169 0
-35 -55 0
-35 -95 0
-35 -115 0
-35 -134 0
-35 -169 0
-55 -95 0
-55 -115 0
-55 -134 0
-55 -169 0
-95 -115 0
-95 -134 0
-95 -169 0
-115 -134 0
-115 -169 0
-134 -169 0
-20 -36 0
-20 -56 0
-20 -75 0
-20 -96 0
-20 -116 0
-20 -135 0
-20 -153 0
-20 -170 0
-20 -189 0
-36 -56 0
-36 -75 0
-36 -96 0
-36 -116 0
-36 -135 0
-36 -153 0
-36 -170 0
-36 -189 0
-56 -75 0
-56 -96 0
-56 -116 0
-56 -135 0
-56 -153 0
-56 -170 0
-56 -189 0
-75 -96 0
-75 -116 0
-75 -135 0
-75 -153 0
-75 -170 0
-75 -189 0
-96 -116 0
-96 -135 0
-96 -153 0
-96 -170 0
-96 -189 0
-116 -135 0
-116 -153 0
-116 -170 0
-116 -189 0
-135 -153 0
-135 -170 0
-135 -189 0
-153 -170 0
-153 -189 0
-170 -189 0
